Instance0
Gap















13.41%
13.41%
9.64%
8.00%
4.71%
3.21%
2.20%
1.13%
0
CPXPARAM_MIP_Cuts_CPXPARAM_MIP_Cuts_LiftProj-CPXPARAM_MIP_Cuts_FlowCovers 0
Instance1
CPXPARAM_MIP_Cuts_CPXPARAM_MIP_Cuts_LiftProj-CPXPARAM_MIP_Cuts_FlowCovers 4
Instance2
Gap

0
CPXPARAM_MIP_Cuts_CPXPARAM_MIP_Cuts_LiftProj-CPXPARAM_MIP_Cuts_FlowCovers 0
Instance3
CPXPARAM_MIP_Cuts_CPXPARAM_MIP_Cuts_LiftProj-CPXPARAM_MIP_Cuts_FlowCovers 0
Instance4
Gap

0.35%
0.35%
0.35%
0.35%
CPXPARAM_MIP_Cuts_CPXPARAM_MIP_Cuts_LiftProj-CPXPARAM_MIP_Cuts_FlowCovers 0
Instance5
CPXPARAM_MIP_Cuts_CPXPARAM_MIP_Cuts_LiftProj-CPXPARAM_MIP_Cuts_FlowCovers 0
Instance6
Gap

0.00%
0
CPXPARAM_MIP_Cuts_CPXPARAM_MIP_Cuts_LiftProj-CPXPARAM_MIP_Cuts_FlowCovers 0
Instance7
CPXPARAM_MIP_Cuts_CPXPARAM_MIP_Cuts_LiftProj-CPXPARAM_MIP_Cuts_FlowCovers 0
Instance8
Gap

0
CPXPARAM_MIP_Cuts_CPXPARAM_MIP_Cuts_LiftProj-CPXPARAM_MIP_Cuts_FlowCovers 0
Instance9
CPXPARAM_MIP_Cuts_CPXPARAM_MIP_Cuts_LiftProj-CPXPARAM_MIP_Cuts_FlowCovers 0
Instance10
Gap



0
CPXPARAM_MIP_Cuts_CPXPARAM_MIP_Cuts_LiftProj-CPXPARAM_MIP_Cuts_FlowCovers 0
Instance11
CPXPARAM_MIP_Cuts_CPXPARAM_MIP_Cuts_LiftProj-CPXPARAM_MIP_Cuts_FlowCovers 3
Instance12
Gap
111.50%
92.96%
0.13%
0.13%
0.13%
0.13%
CPXPARAM_MIP_Cuts_CPXPARAM_MIP_Cuts_LiftProj-CPXPARAM_MIP_Cuts_FlowCovers 0
Instance13
CPXPARAM_MIP_Cuts_CPXPARAM_MIP_Cuts_LiftProj-CPXPARAM_MIP_Cuts_FlowCovers 0
Instance14
Gap

23.59%
23.59%
23.59%
CPXPARAM_MIP_Cuts_CPXPARAM_MIP_Cuts_LiftProj-CPXPARAM_MIP_Cuts_FlowCovers 0
Instance15
CPXPARAM_MIP_Cuts_CPXPARAM_MIP_Cuts_LiftProj-CPXPARAM_MIP_Cuts_FlowCovers 1
Instance16
Gap














0
CPXPARAM_MIP_Cuts_CPXPARAM_MIP_Cuts_LiftProj-CPXPARAM_MIP_Cuts_FlowCovers 0
Instance17
CPXPARAM_MIP_Cuts_CPXPARAM_MIP_Cuts_LiftProj-CPXPARAM_MIP_Cuts_FlowCovers 8
Instance18
Gap


0
CPXPARAM_MIP_Cuts_CPXPARAM_MIP_Cuts_LiftProj-CPXPARAM_MIP_Cuts_FlowCovers 0
Instance19
CPXPARAM_MIP_Cuts_CPXPARAM_MIP_Cuts_LiftProj-CPXPARAM_MIP_Cuts_FlowCovers 4
Instance20
Gap


0.01%
CPXPARAM_MIP_Cuts_CPXPARAM_MIP_Cuts_LiftProj-CPXPARAM_MIP_Cuts_FlowCovers 0
Instance21
CPXPARAM_MIP_Cuts_CPXPARAM_MIP_Cuts_LiftProj-CPXPARAM_MIP_Cuts_FlowCovers 1
Instance22
Gap

0.02%
0.02%
0.02%
0.02%
CPXPARAM_MIP_Cuts_CPXPARAM_MIP_Cuts_LiftProj-CPXPARAM_MIP_Cuts_FlowCovers 0
Instance23
CPXPARAM_MIP_Cuts_CPXPARAM_MIP_Cuts_LiftProj-CPXPARAM_MIP_Cuts_FlowCovers 0
Instance24
Gap


























35.13%
33.89%
CPXPARAM_MIP_Cuts_CPXPARAM_MIP_Cuts_LiftProj-CPXPARAM_MIP_Cuts_FlowCovers 0
Instance25
CPXPARAM_MIP_Cuts_CPXPARAM_MIP_Cuts_LiftProj-CPXPARAM_MIP_Cuts_FlowCovers 15
Instance26
Gap

37.35%
37.35%
37.35%
37.35%
CPXPARAM_MIP_Cuts_CPXPARAM_MIP_Cuts_LiftProj-CPXPARAM_MIP_Cuts_FlowCovers 1
Instance27
CPXPARAM_MIP_Cuts_CPXPARAM_MIP_Cuts_LiftProj-CPXPARAM_MIP_Cuts_FlowCovers 1
Instance28
Gap

1.86%
1.86%
1.86%
1.86%
CPXPARAM_MIP_Cuts_CPXPARAM_MIP_Cuts_LiftProj-CPXPARAM_MIP_Cuts_FlowCovers 0
Instance29
CPXPARAM_MIP_Cuts_CPXPARAM_MIP_Cuts_LiftProj-CPXPARAM_MIP_Cuts_FlowCovers 0
Instance30
Gap
112.51%
98.57%
98.57%
3.14%
3.14%
3.14%
3.14%
CPXPARAM_MIP_Cuts_CPXPARAM_MIP_Cuts_LiftProj-CPXPARAM_MIP_Cuts_FlowCovers 0
Instance31
CPXPARAM_MIP_Cuts_CPXPARAM_MIP_Cuts_LiftProj-CPXPARAM_MIP_Cuts_FlowCovers 1
Instance32
Gap



4.87%
4.87%
4.87%
4.87%
4.20%
CPXPARAM_MIP_Cuts_CPXPARAM_MIP_Cuts_LiftProj-CPXPARAM_MIP_Cuts_FlowCovers 0
Instance33
CPXPARAM_MIP_Cuts_CPXPARAM_MIP_Cuts_LiftProj-CPXPARAM_MIP_Cuts_FlowCovers 2
Instance34
Gap



0
CPXPARAM_MIP_Cuts_CPXPARAM_MIP_Cuts_LiftProj-CPXPARAM_MIP_Cuts_FlowCovers 0
Instance35
CPXPARAM_MIP_Cuts_CPXPARAM_MIP_Cuts_LiftProj-CPXPARAM_MIP_Cuts_FlowCovers 2
Instance36
Gap
110.91%
93.14%
93.14%
12.16%
12.16%
CPXPARAM_MIP_Cuts_CPXPARAM_MIP_Cuts_LiftProj-CPXPARAM_MIP_Cuts_FlowCovers 0
Instance37
CPXPARAM_MIP_Cuts_CPXPARAM_MIP_Cuts_LiftProj-CPXPARAM_MIP_Cuts_FlowCovers 1
Instance38
Gap
114.31%
97.72%
0.46%
0.46%
0.46%
0.46%
CPXPARAM_MIP_Cuts_CPXPARAM_MIP_Cuts_LiftProj-CPXPARAM_MIP_Cuts_FlowCovers 0
Instance39
CPXPARAM_MIP_Cuts_CPXPARAM_MIP_Cuts_LiftProj-CPXPARAM_MIP_Cuts_FlowCovers 0
Instance40
Gap

0
CPXPARAM_MIP_Cuts_CPXPARAM_MIP_Cuts_LiftProj-CPXPARAM_MIP_Cuts_FlowCovers 0
Instance41
CPXPARAM_MIP_Cuts_CPXPARAM_MIP_Cuts_LiftProj-CPXPARAM_MIP_Cuts_FlowCovers 0
Instance42
Gap



0
CPXPARAM_MIP_Cuts_CPXPARAM_MIP_Cuts_LiftProj-CPXPARAM_MIP_Cuts_FlowCovers 0
Instance43
CPXPARAM_MIP_Cuts_CPXPARAM_MIP_Cuts_LiftProj-CPXPARAM_MIP_Cuts_FlowCovers 2
Instance44
Gap

0.39%
0.39%
0.39%
0.39%
0.39%
CPXPARAM_MIP_Cuts_CPXPARAM_MIP_Cuts_LiftProj-CPXPARAM_MIP_Cuts_FlowCovers 0
Instance45
CPXPARAM_MIP_Cuts_CPXPARAM_MIP_Cuts_LiftProj-CPXPARAM_MIP_Cuts_FlowCovers 1
Instance46
Gap


3.15%
3.15%
3.15%
3.15%
3.15%
3.15%
CPXPARAM_MIP_Cuts_CPXPARAM_MIP_Cuts_LiftProj-CPXPARAM_MIP_Cuts_FlowCovers 1
Instance47
CPXPARAM_MIP_Cuts_CPXPARAM_MIP_Cuts_LiftProj-CPXPARAM_MIP_Cuts_FlowCovers 2
Instance48
Gap

10.00%
10.00%
10.00%
10.00%
CPXPARAM_MIP_Cuts_CPXPARAM_MIP_Cuts_LiftProj-CPXPARAM_MIP_Cuts_FlowCovers 0
Instance49
CPXPARAM_MIP_Cuts_CPXPARAM_MIP_Cuts_LiftProj-CPXPARAM_MIP_Cuts_FlowCovers 0
Instance50
Gap

0
CPXPARAM_MIP_Cuts_CPXPARAM_MIP_Cuts_LiftProj-CPXPARAM_MIP_Cuts_FlowCovers 0
Instance51
CPXPARAM_MIP_Cuts_CPXPARAM_MIP_Cuts_LiftProj-CPXPARAM_MIP_Cuts_FlowCovers 0
Instance52
Gap
0.00%
CPXPARAM_MIP_Cuts_CPXPARAM_MIP_Cuts_LiftProj-CPXPARAM_MIP_Cuts_FlowCovers 0
Instance53
CPXPARAM_MIP_Cuts_CPXPARAM_MIP_Cuts_LiftProj-CPXPARAM_MIP_Cuts_FlowCovers 0
Instance54
Gap

0.42%
0.42%
0.42%
0.42%
CPXPARAM_MIP_Cuts_CPXPARAM_MIP_Cuts_LiftProj-CPXPARAM_MIP_Cuts_FlowCovers 0
Instance55
CPXPARAM_MIP_Cuts_CPXPARAM_MIP_Cuts_LiftProj-CPXPARAM_MIP_Cuts_FlowCovers 0
Instance56
Gap



14.19%
14.19%
11.71%
6.12%
5.48%
5.16%
3.86%
3.86%
3.86%
0
CPXPARAM_MIP_Cuts_CPXPARAM_MIP_Cuts_LiftProj-CPXPARAM_MIP_Cuts_FlowCovers 1
Instance57
CPXPARAM_MIP_Cuts_CPXPARAM_MIP_Cuts_LiftProj-CPXPARAM_MIP_Cuts_FlowCovers 4
Instance58
Gap
111.49%
406.57%
82.87%
82.87%
82.87%
82.87%
CPXPARAM_MIP_Cuts_CPXPARAM_MIP_Cuts_LiftProj-CPXPARAM_MIP_Cuts_FlowCovers 0
Instance59
CPXPARAM_MIP_Cuts_CPXPARAM_MIP_Cuts_LiftProj-CPXPARAM_MIP_Cuts_FlowCovers 3
Instance60
Gap
120.75%
227.70%
17.33%
17.33%
0.85%
0.85%
0.85%
0.85%
CPXPARAM_MIP_Cuts_CPXPARAM_MIP_Cuts_LiftProj-CPXPARAM_MIP_Cuts_FlowCovers 0
Instance61
CPXPARAM_MIP_Cuts_CPXPARAM_MIP_Cuts_LiftProj-CPXPARAM_MIP_Cuts_FlowCovers 1
Instance62
Gap

5.20%
5.20%
5.20%
5.20%
5.20%
CPXPARAM_MIP_Cuts_CPXPARAM_MIP_Cuts_LiftProj-CPXPARAM_MIP_Cuts_FlowCovers 0
Instance63
CPXPARAM_MIP_Cuts_CPXPARAM_MIP_Cuts_LiftProj-CPXPARAM_MIP_Cuts_FlowCovers 1
Instance64
Gap



0
CPXPARAM_MIP_Cuts_CPXPARAM_MIP_Cuts_LiftProj-CPXPARAM_MIP_Cuts_FlowCovers 0
Instance65
CPXPARAM_MIP_Cuts_CPXPARAM_MIP_Cuts_LiftProj-CPXPARAM_MIP_Cuts_FlowCovers 2
Instance66
Gap



0
CPXPARAM_MIP_Cuts_CPXPARAM_MIP_Cuts_LiftProj-CPXPARAM_MIP_Cuts_FlowCovers 0
Instance67
CPXPARAM_MIP_Cuts_CPXPARAM_MIP_Cuts_LiftProj-CPXPARAM_MIP_Cuts_FlowCovers 3
Instance68
Gap


0.14%
0.14%
0.14%
0.14%
CPXPARAM_MIP_Cuts_CPXPARAM_MIP_Cuts_LiftProj-CPXPARAM_MIP_Cuts_FlowCovers 0
Instance69
CPXPARAM_MIP_Cuts_CPXPARAM_MIP_Cuts_LiftProj-CPXPARAM_MIP_Cuts_FlowCovers 1
Instance70
Gap


13.49%
13.49%
13.49%
13.49%
13.49%
CPXPARAM_MIP_Cuts_CPXPARAM_MIP_Cuts_LiftProj-CPXPARAM_MIP_Cuts_FlowCovers 0
Instance71
CPXPARAM_MIP_Cuts_CPXPARAM_MIP_Cuts_LiftProj-CPXPARAM_MIP_Cuts_FlowCovers 2
Instance72
Gap


8.38%
8.38%
8.38%
8.38%
8.02%
CPXPARAM_MIP_Cuts_CPXPARAM_MIP_Cuts_LiftProj-CPXPARAM_MIP_Cuts_FlowCovers 0
Instance73
CPXPARAM_MIP_Cuts_CPXPARAM_MIP_Cuts_LiftProj-CPXPARAM_MIP_Cuts_FlowCovers 2
Instance74
Gap



161.00%
161.00%
CPXPARAM_MIP_Cuts_CPXPARAM_MIP_Cuts_LiftProj-CPXPARAM_MIP_Cuts_FlowCovers 0
Instance75
CPXPARAM_MIP_Cuts_CPXPARAM_MIP_Cuts_LiftProj-CPXPARAM_MIP_Cuts_FlowCovers 2
Instance76
Gap

0.21%
0.21%
0.21%
0.21%
CPXPARAM_MIP_Cuts_CPXPARAM_MIP_Cuts_LiftProj-CPXPARAM_MIP_Cuts_FlowCovers 0
Instance77
CPXPARAM_MIP_Cuts_CPXPARAM_MIP_Cuts_LiftProj-CPXPARAM_MIP_Cuts_FlowCovers 0
Instance78
Gap


0.50%
0.50%
0.50%
0.50%
CPXPARAM_MIP_Cuts_CPXPARAM_MIP_Cuts_LiftProj-CPXPARAM_MIP_Cuts_FlowCovers 0
Instance79
CPXPARAM_MIP_Cuts_CPXPARAM_MIP_Cuts_LiftProj-CPXPARAM_MIP_Cuts_FlowCovers 1
